benchmark_str_length/p1_10_17-3.dzn
Alphabet = {A,C,G,T};
ns = 10;
nc = 17;
sl = 17;
neighbours = [| I(C),I(A),I(A),I(G),I(A),I(A),I(A),I(A),I(A),I(A),I(A),I(A),I(A),I(A),I(A),I(A),I(A) | I(C),I(A),I(G),I(A),I(A),I(A),I(A),I(A),I(G),I(A),I(C),I(A),I(C),I(A),I(A),I(A),I(A) | I(A),I(C),I(A),I(T),I(A),I(C),I(A),I(A),I(C),I(A),I(A),I(A),I(A),I(A),I(A),I(A),I(A) | I(C),I(A),I(C),I(A),I(G),I(C),I(A),I(A),I(G),I(A),I(A),I(A),I(A),I(A),I(C),I(A),I(G) | I(A),I(C),I(A),I(A),I(C),I(A),I(A),I(A),I(A),I(A),I(A),I(A),I(A),I(A),I(C),I(A),I(A) | I(A),I(A),I(A),I(A),I(A),I(A),I(A),I(A),I(A),I(A),I(A),I(A),I(A),I(A),I(G),I(C),I(G) | I(A),I(A),I(A),I(A),I(C),I(A),I(C),I(A),I(A),I(A),I(C),I(A),I(A),I(C),I(C),I(A),I(A) | I(A),I(C),I(A),I(A),I(A),I(A),I(G),I(G),I(A),I(A),I(A),I(C),I(A),I(A),I(C),I(A),I(A) | I(A),I(A),I(C),I(C),I(A),I(A),I(A),I(A),I(A),I(A),I(A),I(A),I(A),I(A),I(A),I(C),I(A) | I(A),I(G),I(A),I(A),I(A),I(A),I(C),I(C),I(C),I(A),I(C),I(A),I(A),I(C),I(C),I(A),I(C) |];
