benchmark_str_length/p1_10_17-3.txt
{
	"num_strings": 10,
	"alphabet": "ACGT",
	"strings": [
		"CAAGAAAAAAAAAAAAA",
		"CAGAAAAAGACACAAAA",
		"ACATACAACAAAAAAAA",
		"CACAGCAAGAAAAACAG",
		"ACAACAAAAAAAAACAA",
		"AAAAAAAAAAAAAAGCG",
		"AAAACACAAACAACCAA",
		"ACAAAAGGAAACAACAA",
		"AACCAAAAAAAAAAACA",
		"AGAAAACCCACAACCAC"
	],
	"str_length":[17,17,17,17,17,17,17,17,17,17]
}